p tw 64 95
1 9
9 10
9 17
17 18
17 25
25 33
33 34
33 41
41 42
41 49
49 57
57 58
2 3
10 11
10 18
18 19
18 26
26 27
26 34
34 35
34 42
42 43
42 50
50 51
58 59
3 4
3 11
11 19
19 20
19 27
27 28
27 35
35 36
35 43
43 44
43 51
51 52
51 59
59 60
4 12
12 13
12 20
20 21
28 29
36 44
44 45
44 52
52 53
52 60
60 61
5 6
13 14
13 21
21 22
21 29
29 30
29 37
37 38
45 46
45 53
53 54
53 61
61 62
6 7
6 14
14 15
14 22
22 23
22 30
30 31
38 39
38 46
46 47
46 54
54 55
54 62
62 63
7 8
7 15
15 23
23 24
23 31
31 32
31 39
39 40
39 47
55 56
55 63
63 64
8 16
16 24
32 40
40 48
48 56
56 64
